31745 34888 
31959 34721 
31640 34902 
30233 35473 
30139 35545 
32150 34562 
32219 34507 
33275 34161 
31387 35067 
31490 35000 
30069 35574 
30346 35393 
33640 33933 
32289 34478 
29896 35682 
29940 35663 
29702 35813 
30438 35325 
30696 35153 
31376 35074 
31614 34924 
30024 35609 
29851 35705 
29613 35855 
29786 35759 
30411 35348 
